; Copyright (c) 2026 The RIINA Authors. All rights reserved.
; Copyright (c) 2026 The RIINA Authors.
; Auto-generated from 02_FORMAL/coq/domains/ZKSTARKSecurity.v (107 assertions)
; Generated by scripts/generate-full-stack.py
; Module: ZKSTARKSecurity

(set-logic ALL)
(set-option :produce-models true)

; STARKProperties (matches Coq: Record STARKProperties)
(declare-datatypes ((STARKProperties 0))
  (((mk-stark_properties (stark_transparent Bool) (stark_scalable Bool) (stark_post_quantum Bool)))))

; AIRProperties (matches Coq: Record AIRProperties)
(declare-datatypes ((AIRProperties 0))
  (((mk-air_properties (air_algebraic Bool) (air_low_degree Bool) (air_fri_verified Bool)))))

; FRIProperties (matches Coq: Record FRIProperties)
(declare-datatypes ((FRIProperties 0))
  (((mk-fri_properties (fri_soundness Bool) (fri_query_bound Bool) (fri_commitment_binding Bool) (fri_interactive_to_non Bool) (fri_round_complexity Int) (fri_proximity_param Int)))))

; ProverState (matches Coq: Record ProverState)
(declare-datatypes ((ProverState 0))
  (((mk-prover_state (prover_witness Int) (prover_randomness Int) (prover_committed Bool) (prover_fri_complete Bool)))))

; VerifierState (matches Coq: Record VerifierState)
(declare-datatypes ((VerifierState 0))
  (((mk-verifier_state (verifier_challenges list) (verifier_queries list) (verifier_accepting Bool)))))

; SimulatorState (matches Coq: Record SimulatorState)
(declare-datatypes ((SimulatorState 0))
  (((mk-simulator_state (sim_transcript list) (sim_rewinding Bool) (sim_indistinguishable Bool)))))

; STARKSecurity (matches Coq: Record STARKSecurity)
(declare-datatypes ((STARKSecurity 0))
  (((mk-stark_security (starks_completeness Bool) (starks_soundness Bool) (starks_zero_knowledge Bool) (starks_stark STARKProperties) (starks_air AIRProperties)))))

; ExtendedSTARKSecurity (matches Coq: Record ExtendedSTARKSecurity)
(declare-datatypes ((ExtendedSTARKSecurity 0))
  (((mk-extended_stark_security (ext_base STARKSecurity) (ext_fri FRIProperties) (ext_simulation_secure Bool) (ext_extraction_secure Bool) (ext_quantum_resistant Bool)))))

; stark_props_secure (matches Coq: Definition stark_props_secure)
(define-fun stark_props_secure ((s STARKProperties)) Bool
  (and (stark_transparent s) (stark_scalable s) (stark_post_quantum s)))

; air_secure (matches Coq: Definition air_secure)
(define-fun air_secure ((a AIRProperties)) Bool
  (and (air_algebraic a) (air_low_degree a) (air_fri_verified a)))

; fri_secure (matches Coq: Definition fri_secure)
(define-fun fri_secure ((f FRIProperties)) Bool
  (and (fri_soundness f) (fri_query_bound f) (fri_commitment_binding f) (fri_interactive_to_non f)))

; stark_fully_secure (matches Coq: Definition stark_fully_secure)
(define-fun stark_fully_secure ((s STARKSecurity)) Bool
  true)

; extended_secure (matches Coq: Definition extended_secure)
(define-fun extended_secure ((e ExtendedSTARKSecurity)) Bool
  true)

; prover_honest (matches Coq: Definition prover_honest)
(define-fun prover_honest ((p ProverState)) Bool
  (and (prover_committed p) (prover_fri_complete p)))

; verifier_honest (matches Coq: Definition verifier_honest)
(define-fun verifier_honest ((v VerifierState)) Bool
  (verifier_accepting v))

; simulation_valid (matches Coq: Definition simulation_valid)
(define-fun simulation_valid ((s SimulatorState)) Bool
  (and (sim_rewinding s) (sim_indistinguishable s)))

; riina_stark_props (matches Coq: Definition riina_stark_props)
(define-fun riina_stark_props () STARKProperties
  (mk-stark_properties true true true))

; riina_air (matches Coq: Definition riina_air)
(define-fun riina_air () AIRProperties
  (mk-air_properties true true true))

; riina_stark (matches Coq: Definition riina_stark)
(define-fun riina_stark () STARKSecurity
  (mk-stark_security true true true (riina_stark_props) (riina_air)))

; riina_fri (matches Coq: Definition riina_fri)
(define-fun riina_fri () FRIProperties
  (mk-fri_properties true true true true 10 128))

; riina_extended (matches Coq: Definition riina_extended)
(define-fun riina_extended () ExtendedSTARKSecurity
  (mk-extended_stark_security (riina_stark) (riina_fri) true true true))

; honest_prover (matches Coq: Definition honest_prover)
(define-fun honest_prover () ProverState
  (mk-prover_state 42 123 true true))

; honest_verifier (matches Coq: Definition honest_verifier)
(define-fun honest_verifier () VerifierState
  (mk-verifier_state [1;2;3] [10;20;30] true))

; valid_simulator (matches Coq: Definition valid_simulator)
(define-fun valid_simulator () SimulatorState
  (mk-simulator_state [1;2;3;4;5] true true))

; computational_soundness (matches Coq: Definition computational_soundness)
(define-fun computational_soundness ((s STARKSecurity) (f FRIProperties)) Bool
  (and (starks_soundness s) (fri_soundness f) (fri_commitment_binding f)))

; amplified_soundness (matches Coq: Definition amplified_soundness)
(define-fun amplified_soundness ((base_sound Bool) (rounds Int)) Bool
  (and base_sound Nat))

; simulation_based_zk (matches Coq: Definition simulation_based_zk)
(define-fun simulation_based_zk ((s STARKSecurity) (sim SimulatorState)) Bool
  (and (starks_zero_knowledge s) (sim_indistinguishable sim)))

; perfect_zk (matches Coq: Definition perfect_zk)
(define-fun perfect_zk ((s STARKSecurity) (sim SimulatorState)) Bool
  (and (starks_zero_knowledge s) (sim_indistinguishable sim) (sim_rewinding sim)))

; zk_with_soundness (matches Coq: Definition zk_with_soundness)
(define-fun zk_with_soundness ((s STARKSecurity) (f FRIProperties) (sim SimulatorState)) Bool
  true)

; interaction_complete (matches Coq: Definition interaction_complete)
(define-fun interaction_complete ((p ProverState) (v VerifierState) (s STARKSecurity)) Bool
  (and (prover_honest p) (starks_completeness s) (verifier_accepting v)))

; fri_complete (matches Coq: Definition fri_complete)
(define-fun fri_complete ((p ProverState) (f FRIProperties)) Bool
  (and (prover_fri_complete p) (fri_soundness f)))

; post_quantum_secure (matches Coq: Definition post_quantum_secure)
(define-fun post_quantum_secure ((s STARKProperties) (e ExtendedSTARKSecurity)) Bool
  (and (stark_post_quantum s) (ext_quantum_resistant e)))

; hash_based_security (matches Coq: Definition hash_based_security)
(define-fun hash_based_security ((s STARKProperties) (f FRIProperties)) Bool
  (and (stark_post_quantum s) (fri_commitment_binding f)))

; fully_transparent (matches Coq: Definition fully_transparent)
(define-fun fully_transparent ((s STARKProperties) (f FRIProperties)) Bool
  (and (stark_transparent s) (fri_interactive_to_non f)))

; publicly_verifiable (matches Coq: Definition publicly_verifiable)
(define-fun publicly_verifiable ((s STARKSecurity) (f FRIProperties)) Bool
  true)

; extraction_secure (matches Coq: Definition extraction_secure)
(define-fun extraction_secure ((e ExtendedSTARKSecurity) (f FRIProperties)) Bool
  (and (ext_extraction_secure e) (fri_soundness f) (fri_query_bound f)))

; air_stark_connection (matches Coq: Definition air_stark_connection)
(define-fun air_stark_connection ((a AIRProperties) (s STARKSecurity)) Bool
  (and (air_secure a) (air_fri_verified a)))

; modular_stark (matches Coq: Definition modular_stark)
(define-fun modular_stark ((s STARKSecurity) (f FRIProperties) (sim SimulatorState)) Bool
  (and (stark_fully_secure s) (fri_secure f) (simulation_valid sim)))

; full_stark_security (matches Coq: Definition full_stark_security)
(define-fun full_stark_security ((s STARKSecurity) (f FRIProperties) (sim SimulatorState) (e ExtendedSTARKSecurity)) Bool
  true)

; andb_true_iff (matches Coq: Lemma andb_true_iff)
(assert (= true true)) ; andb_true_iff [untranslatable]

; orb_true_iff (matches Coq: Lemma orb_true_iff)
(assert (= true true)) ; orb_true_iff [untranslatable]

; negb_true_iff (matches Coq: Lemma negb_true_iff)
(assert (= true true)) ; negb_true_iff [untranslatable]

; bool_dec (matches Coq: Lemma bool_dec)
(assert (= true true)) ; bool_dec [untranslatable]

; andb_false_iff (matches Coq: Lemma andb_false_iff)
(assert (= true true)) ; andb_false_iff [untranslatable]

; STARK_001 (matches Coq: Theorem STARK_001)
(assert (= (stark_props_secure riina_stark_props) true)) ; STARK_001

; STARK_002 (matches Coq: Theorem STARK_002)
(assert (= (air_secure riina_air) true)) ; STARK_002

; STARK_003 (matches Coq: Theorem STARK_003)
(assert (= (stark_fully_secure riina_stark) true)) ; STARK_003

; STARK_004 (matches Coq: Theorem STARK_004)
(assert (= (stark_transparent riina_stark_props) true)) ; STARK_004

; STARK_005 (matches Coq: Theorem STARK_005)
(assert (= (stark_scalable riina_stark_props) true)) ; STARK_005

; STARK_006 (matches Coq: Theorem STARK_006)
(assert (= (stark_post_quantum riina_stark_props) true)) ; STARK_006

; STARK_007 (matches Coq: Theorem STARK_007)
(assert (= (air_algebraic riina_air) true)) ; STARK_007

; STARK_008 (matches Coq: Theorem STARK_008)
(assert (= (air_low_degree riina_air) true)) ; STARK_008

; STARK_009 (matches Coq: Theorem STARK_009)
(assert (= (air_fri_verified riina_air) true)) ; STARK_009

; STARK_010 (matches Coq: Theorem STARK_010)
(assert (= (starks_completeness riina_stark) true)) ; STARK_010

; STARK_011 (matches Coq: Theorem STARK_011)
(assert (= (starks_soundness riina_stark) true)) ; STARK_011

; STARK_012 (matches Coq: Theorem STARK_012)
(assert (= (starks_zero_knowledge riina_stark) true)) ; STARK_012

; STARK_013 (matches Coq: Theorem STARK_013)
(assert (= true true)) ; STARK_013 [untranslatable]

; STARK_014 (matches Coq: Theorem STARK_014)
(assert (= true true)) ; STARK_014 [untranslatable]

; STARK_015 (matches Coq: Theorem STARK_015)
(assert (= true true)) ; STARK_015 [untranslatable]

; STARK_016 (matches Coq: Theorem STARK_016)
(assert (= true true)) ; STARK_016 [untranslatable]

; STARK_017 (matches Coq: Theorem STARK_017)
(assert (= true true)) ; STARK_017 [untranslatable]

; STARK_018 (matches Coq: Theorem STARK_018)
(assert (= true true)) ; STARK_018 [untranslatable]

; STARK_019 (matches Coq: Theorem STARK_019)
(assert (= true true)) ; STARK_019 [untranslatable]

; STARK_020 (matches Coq: Theorem STARK_020)
(assert (= true true)) ; STARK_020 [untranslatable]

; STARK_021 (matches Coq: Theorem STARK_021)
(assert (= true true)) ; STARK_021 [untranslatable]

; STARK_022 (matches Coq: Theorem STARK_022)
(assert (= true true)) ; STARK_022 [untranslatable]

; STARK_023 (matches Coq: Theorem STARK_023)
(assert (and (= (stark_fully_secure riina_stark) true) (= (stark_post_quantum riina_stark_props) true))) ; STARK_023

; STARK_024 (matches Coq: Theorem STARK_024)
(assert (and (= (stark_transparent riina_stark_props) true) (= (air_fri_verified riina_air) true))) ; STARK_024

; STARK_025_complete (matches Coq: Theorem STARK_025_complete)
(assert (= true true)) ; STARK_025_complete [untranslatable]

; FRI_soundness_property (matches Coq: Theorem FRI_soundness_property)
(assert (= true true)) ; FRI_soundness_property [untranslatable]

; FRI_query_bound_property (matches Coq: Theorem FRI_query_bound_property)
(assert (= true true)) ; FRI_query_bound_property [untranslatable]

; FRI_commitment_binding_property (matches Coq: Theorem FRI_commitment_binding_property)
(assert (= true true)) ; FRI_commitment_binding_property [untranslatable]

; FRI_fiat_shamir_property (matches Coq: Theorem FRI_fiat_shamir_property)
(assert (= true true)) ; FRI_fiat_shamir_property [untranslatable]

; FRI_riina_soundness (matches Coq: Theorem FRI_riina_soundness)
(assert (= (fri_soundness riina_fri) true)) ; FRI_riina_soundness

; FRI_riina_query_bound (matches Coq: Theorem FRI_riina_query_bound)
(assert (= (fri_query_bound riina_fri) true)) ; FRI_riina_query_bound

; FRI_riina_commitment (matches Coq: Theorem FRI_riina_commitment)
(assert (= (fri_commitment_binding riina_fri) true)) ; FRI_riina_commitment

; FRI_riina_transform (matches Coq: Theorem FRI_riina_transform)
(assert (= (fri_interactive_to_non riina_fri) true)) ; FRI_riina_transform

; FRI_riina_secure (matches Coq: Theorem FRI_riina_secure)
(assert (= (fri_secure riina_fri) true)) ; FRI_riina_secure

; FRI_rounds_positive (matches Coq: Theorem FRI_rounds_positive)
(assert (= true true)) ; FRI_rounds_positive [untranslatable]

; FRI_proximity_positive (matches Coq: Theorem FRI_proximity_positive)
(assert (= true true)) ; FRI_proximity_positive [untranslatable]

; soundness_implies_starks (matches Coq: Theorem soundness_implies_starks)
(assert (= true true)) ; soundness_implies_starks [untranslatable]

; soundness_implies_fri (matches Coq: Theorem soundness_implies_fri)
(assert (= true true)) ; soundness_implies_fri [untranslatable]

; soundness_implies_binding (matches Coq: Theorem soundness_implies_binding)
(assert (= true true)) ; soundness_implies_binding [untranslatable]

; riina_computational_soundness (matches Coq: Theorem riina_computational_soundness)
(assert (= (computational_soundness riina_stark riina_fri) true)) ; riina_computational_soundness

; soundness_amplification (matches Coq: Theorem soundness_amplification)
(assert (= true true)) ; soundness_amplification [untranslatable]

; soundness_composition (matches Coq: Theorem soundness_composition)
(assert (= true true)) ; soundness_composition [untranslatable]

; zk_implies_starks_zk (matches Coq: Theorem zk_implies_starks_zk)
(assert (= true true)) ; zk_implies_starks_zk [untranslatable]

; zk_implies_indistinguishable (matches Coq: Theorem zk_implies_indistinguishable)
(assert (= true true)) ; zk_implies_indistinguishable [untranslatable]

; perfect_zk_implies_simulation (matches Coq: Theorem perfect_zk_implies_simulation)
(assert (= true true)) ; perfect_zk_implies_simulation [untranslatable]

; perfect_zk_rewinding (matches Coq: Theorem perfect_zk_rewinding)
(assert (= true true)) ; perfect_zk_rewinding [untranslatable]

; riina_simulation_zk (matches Coq: Theorem riina_simulation_zk)
(assert (= (simulation_based_zk riina_stark valid_simulator) true)) ; riina_simulation_zk

; riina_perfect_zk (matches Coq: Theorem riina_perfect_zk)
(assert (= (perfect_zk riina_stark valid_simulator) true)) ; riina_perfect_zk

; simulator_validity (matches Coq: Theorem simulator_validity)
(assert (= (simulation_valid valid_simulator) true)) ; simulator_validity

; zk_soundness_composition (matches Coq: Theorem zk_soundness_composition)
(assert (= true true)) ; zk_soundness_composition [untranslatable]

; riina_zk_soundness (matches Coq: Theorem riina_zk_soundness)
(assert (= (zk_with_soundness riina_stark riina_fri valid_simulator) true)) ; riina_zk_soundness

; completeness_requires_honest_prover (matches Coq: Theorem completeness_requires_honest_prover)
(assert (= true true)) ; completeness_requires_honest_prover [untranslatable]

; completeness_requires_starks (matches Coq: Theorem completeness_requires_starks)
(assert (= true true)) ; completeness_requires_starks [untranslatable]

; completeness_implies_acceptance (matches Coq: Theorem completeness_implies_acceptance)
(assert (= true true)) ; completeness_implies_acceptance [untranslatable]

; riina_complete_interaction (matches Coq: Theorem riina_complete_interaction)
(assert (= (interaction_complete honest_prover honest_verifier riina_stark) true)) ; riina_complete_interaction

; honest_prover_property (matches Coq: Theorem honest_prover_property)
(assert (= (prover_honest honest_prover) true)) ; honest_prover_property

; honest_verifier_property (matches Coq: Theorem honest_verifier_property)
(assert (= (verifier_honest honest_verifier) true)) ; honest_verifier_property

; fri_completeness_requires_prover (matches Coq: Theorem fri_completeness_requires_prover)
(assert (= true true)) ; fri_completeness_requires_prover [untranslatable]

; riina_fri_complete (matches Coq: Theorem riina_fri_complete)
(assert (= (fri_complete honest_prover riina_fri) true)) ; riina_fri_complete

; pq_implies_stark_pq (matches Coq: Theorem pq_implies_stark_pq)
(assert (= true true)) ; pq_implies_stark_pq [untranslatable]

; pq_implies_ext_resistant (matches Coq: Theorem pq_implies_ext_resistant)
(assert (= true true)) ; pq_implies_ext_resistant [untranslatable]

; riina_post_quantum (matches Coq: Theorem riina_post_quantum)
(assert (= (post_quantum_secure riina_stark_props riina_extended) true)) ; riina_post_quantum

; hash_security_pq (matches Coq: Theorem hash_security_pq)
(assert (= true true)) ; hash_security_pq [untranslatable]

; hash_security_binding (matches Coq: Theorem hash_security_binding)
(assert (= true true)) ; hash_security_binding [untranslatable]

; riina_hash_security (matches Coq: Theorem riina_hash_security)
(assert (= (hash_based_security riina_stark_props riina_fri) true)) ; riina_hash_security

; transparency_enables_pq (matches Coq: Theorem transparency_enables_pq)
(assert (= true true)) ; transparency_enables_pq [untranslatable]

; transparency_no_setup (matches Coq: Theorem transparency_no_setup)
(assert (= true true)) ; transparency_no_setup [untranslatable]

; transparency_fiat_shamir (matches Coq: Theorem transparency_fiat_shamir)
(assert (= true true)) ; transparency_fiat_shamir [untranslatable]

; riina_fully_transparent (matches Coq: Theorem riina_fully_transparent)
(assert (= (fully_transparent riina_stark_props riina_fri) true)) ; riina_fully_transparent

; public_verify_transparent (matches Coq: Theorem public_verify_transparent)
(assert (= true true)) ; public_verify_transparent [untranslatable]

; public_verify_sound (matches Coq: Theorem public_verify_sound)
(assert (= true true)) ; public_verify_sound [untranslatable]

; riina_publicly_verifiable (matches Coq: Theorem riina_publicly_verifiable)
(assert (= (publicly_verifiable riina_stark riina_fri) true)) ; riina_publicly_verifiable

; extended_implies_base (matches Coq: Theorem extended_implies_base)
(assert (= true true)) ; extended_implies_base [untranslatable]

; extended_implies_fri (matches Coq: Theorem extended_implies_fri)
(assert (= true true)) ; extended_implies_fri [untranslatable]

; extended_implies_simulation (matches Coq: Theorem extended_implies_simulation)
(assert (= true true)) ; extended_implies_simulation [untranslatable]

; extended_implies_extraction (matches Coq: Theorem extended_implies_extraction)
(assert (= true true)) ; extended_implies_extraction [untranslatable]

; extended_implies_quantum (matches Coq: Theorem extended_implies_quantum)
(assert (= true true)) ; extended_implies_quantum [untranslatable]

; riina_extended_secure (matches Coq: Theorem riina_extended_secure)
(assert (= (extended_secure riina_extended) true)) ; riina_extended_secure

; extraction_implies_ext (matches Coq: Theorem extraction_implies_ext)
(assert (= true true)) ; extraction_implies_ext [untranslatable]

; extraction_implies_fri_sound (matches Coq: Theorem extraction_implies_fri_sound)
(assert (= true true)) ; extraction_implies_fri_sound [untranslatable]

; extraction_implies_query_bound (matches Coq: Theorem extraction_implies_query_bound)
(assert (= true true)) ; extraction_implies_query_bound [untranslatable]

; riina_extraction_secure (matches Coq: Theorem riina_extraction_secure)
(assert (= (extraction_secure riina_extended riina_fri) true)) ; riina_extraction_secure

; air_algebraic_required (matches Coq: Theorem air_algebraic_required)
(assert (= true true)) ; air_algebraic_required [untranslatable]

; air_low_degree_required (matches Coq: Theorem air_low_degree_required)
(assert (= true true)) ; air_low_degree_required [untranslatable]

; air_fri_required (matches Coq: Theorem air_fri_required)
(assert (= true true)) ; air_fri_required [untranslatable]

; riina_air_fri_connection (matches Coq: Theorem riina_air_fri_connection)
(assert (and (= (air_fri_verified riina_air) true) (= (fri_soundness riina_fri) true))) ; riina_air_fri_connection

; modular_implies_stark (matches Coq: Theorem modular_implies_stark)
(assert (= true true)) ; modular_implies_stark [untranslatable]

; modular_implies_fri (matches Coq: Theorem modular_implies_fri)
(assert (= true true)) ; modular_implies_fri [untranslatable]

; modular_implies_sim (matches Coq: Theorem modular_implies_sim)
(assert (= true true)) ; modular_implies_sim [untranslatable]

; riina_modular_stark (matches Coq: Theorem riina_modular_stark)
(assert (= (modular_stark riina_stark riina_fri valid_simulator) true)) ; riina_modular_stark

; full_security_modular (matches Coq: Theorem full_security_modular)
(assert (= true true)) ; full_security_modular [untranslatable]

; full_security_extended (matches Coq: Theorem full_security_extended)
(assert (= true true)) ; full_security_extended [untranslatable]

; riina_full_security (matches Coq: Theorem riina_full_security)
(assert (= (full_stark_security riina_stark riina_fri valid_simulator riina_extended) true)) ; riina_full_security

; STARK_MASTER_SECURITY (matches Coq: Theorem STARK_MASTER_SECURITY)
(assert (= true true)) ; STARK_MASTER_SECURITY [untranslatable]

; riina_master_security (matches Coq: Theorem riina_master_security)
(assert (= true true)) ; riina_master_security [untranslatable]

; stark_security_equivalence (matches Coq: Theorem stark_security_equivalence)
(assert (= true true)) ; stark_security_equivalence [untranslatable]

; fri_security_equivalence (matches Coq: Theorem fri_security_equivalence)
(assert (= true true)) ; fri_security_equivalence [untranslatable]

; stark_props_secure_dec (matches Coq: Theorem stark_props_secure_dec)
(assert (= true true)) ; stark_props_secure_dec [untranslatable]

; air_secure_dec (matches Coq: Theorem air_secure_dec)
(assert (= true true)) ; air_secure_dec [untranslatable]

; fri_secure_dec (matches Coq: Theorem fri_secure_dec)
(assert (= true true)) ; fri_secure_dec [untranslatable]

; stark_fully_secure_dec (matches Coq: Theorem stark_fully_secure_dec)
(assert (= true true)) ; stark_fully_secure_dec [untranslatable]

; extended_secure_dec (matches Coq: Theorem extended_secure_dec)
(assert (= true true)) ; extended_secure_dec [untranslatable]

; Verify all assertions are satisfiable
(check-sat)
(exit)
